
  22   10
  10   10   10   10   10   10   10   10   10   10

   0   0   0   0   0   0   0   0   0   0   0   1 2 
   4  10  10  10  10  10  10  10  10  10  10   2 5 3 
   7  10  10  10  10  10  10  10  10  10  10   1 4 
   3  10  10  10  10  10  10  10  10  10  10   1 6 
   3  10  10  10  10  10  10  10  10  10  10   1 6 
  10  10  10  10  10  10  10  10  10  10  10   2 9 7 
   5  10  10  10  10  10  10  10  10  10  10   3 21 16 8 
   5  10  10  10  10  10  10  10  10  10  10   4 20 15 12 10 
   4  10  10  10  10  10  10  10  10  10  10   4 20 15 12 11 
   8  10  10  10  10  10  10  10  10  10  10   2 18 11 
   9  10  10  10  10  10  10  10  10  10  10   2 19 13 
   9  10  10  10  10  10  10  10  10  10  10   1 14 
   6  10  10  10  10  10  10  10  10  10  10   1 17 
   6  10  10  10  10  10  10  10  10  10  10   1 17 
   4  10  10  10  10  10  10  10  10  10  10   1 18 
   8  10  10  10  10  10  10  10  10  10  10   1 17 
   5  10  10  10  10  10  10  10  10  10  10   1 22
   3  10  10  10  10  10  10  10  10  10  10   1 22
   3  10  10  10  10  10  10  10  10  10  10   1 22
   6  10  10  10  10  10  10  10  10  10  10   1 22
   2  10  10  10  10  10  10  10  10  10  10   1 22
   0   0   0   0   0   0   0   0   0   0   0   0 
